p cnf 75 245
-3 -1 0
-3 2 0
1 -2 3 0
-3 4 -5 0
3 -4 -5 0
-3 -4 5 0
3 4 5 0
7 -6 0
7 -4 0
6 4 -7 0
-9 7 0
-9 8 0
-7 -8 9 0
-10 -5 0
-10 9 0
5 -9 10 0
-13 -12 0
-13 -12 0
12 13 0
-14 11 0
-14 -13 0
-11 13 14 0
-16 3 -17 0
16 -3 -17 0
-16 -3 17 0
16 3 17 0
-18 15 0
-18 -17 0
-15 17 18 0
19 18 0
19 3 0
-18 -3 -19 0
14 -19 -20 0
-14 19 -20 0
14 19 20 0
-14 -19 20 0
21 -2 -22 0
-21 2 -22 0
21 2 22 0
-21 -2 22 0
-23 17 0
-23 22 0
-17 -22 23 0
24 -8 0
24 21 0
8 -21 -24 0
26 -25 0
26 16 0
25 -16 -26 0
-27 24 0
-27 26 0
-24 -26 27 0
-26 25 -28 0
26 -25 -28 0
-26 -25 28 0
26 25 28 0
-29 -27 0
-29 28 0
27 -28 29 0
-29 -25 -30 0
29 25 -30 0
-29 25 30 0
29 -25 30 0
31 23 0
31 30 0
-23 -30 -31 0
32 -20 0
32 -31 0
20 31 -32 0
10 32 -33 0
-10 -32 -33 0
10 -32 33 0
-10 32 33 0
-34 -1 0
-34 24 0
1 -24 34 0
-36 -25 0
-36 -35 0
25 35 36 0
-37 -6 0
-37 36 0
6 -36 37 0
38 -34 0
38 -37 0
34 37 -38 0
29 -16 -39 0
-29 16 -39 0
29 16 39 0
-29 -16 39 0
34 25 -40 0
-34 -25 -40 0
34 -25 40 0
-34 25 40 0
41 -39 0
41 -40 0
39 40 -41 0
38 -41 -42 0
-38 41 -42 0
38 41 42 0
-38 -41 42 0
-37 -12 -43 0
37 12 -43 0
-37 12 43 0
37 -12 43 0
-44 43 0
-44 11 0
-43 -11 44 0
45 -44 0
45 29 0
44 -29 -45 0
-46 -1 0
-46 -17 0
1 17 46 0
-45 -46 -47 0
45 46 -47 0
-45 46 47 0
45 -46 47 0
48 11 0
48 13 0
-11 -13 -48 0
-49 6 0
-49 22 0
-6 -22 49 0
-50 12 0
-50 -49 0
-12 49 50 0
51 50 0
51 24 0
-50 -24 -51 0
51 -43 -52 0
-51 43 -52 0
51 43 52 0
-51 -43 52 0
-52 53 -54 0
52 -53 -54 0
-52 -53 54 0
52 53 54 0
-55 48 0
-55 -54 0
-48 54 55 0
-56 47 0
-56 -55 0
-47 55 56 0
57 -26 0
57 34 0
26 -34 -57 0
-21 58 0
21 58 0
-59 -36 0
-59 25 0
36 -25 59 0
-59 -36 -60 0
59 36 -60 0
-59 36 60 0
59 -36 60 0
58 -60 -61 0
-58 60 -61 0
58 60 61 0
-58 -60 61 0
62 57 0
62 61 0
-57 -61 -62 0
-56 -62 -63 0
56 62 -63 0
-56 62 63 0
56 -62 63 0
-64 7 0
-64 -37 0
-7 37 64 0
-7 1 -65 0
7 -1 -65 0
-7 -1 65 0
7 1 65 0
64 65 -66 0
-64 -65 -66 0
64 -65 66 0
-64 65 66 0
-68 -67 0
-68 50 0
67 -50 68 0
69 -25 0
69 -36 0
25 36 -69 0
-70 67 0
-70 69 0
-67 -69 70 0
-68 70 -71 0
68 -70 -71 0
-68 -70 71 0
68 70 71 0
72 -66 0
72 -71 0
66 71 -72 0
-73 63 0
-73 72 0
-63 -72 73 0
74 42 0
74 73 0
-42 -73 -74 0
33 -74 -75 0
-33 74 -75 0
33 74 75 0
-33 -74 75 0
-7 71 12 19 30 0
-32 22 50 -73 48 -42 0
44 73 17 66 0
-34 -56 -27 0
-74 -31 38 0
-48 -4 -28 0
24 -21 58 61 0
14 -61 -35 -13 23 0
52 56 45 -28 0
1 6 -72 21 -48 0
19 75 54 -72 -70 39 0
-57 -13 71 68 55 0
-14 17 22 -75 0
-62 44 0
39 35 3 -36 26 0
51 -70 9 -31 58 73 0
-61 -60 41 0
-60 64 0
34 7 -25 -11 0
47 -39 1 0
-22 38 -27 9 39 62 0
-10 -39 -65 0
-40 73 7 2 -5 0
72 23 0
-59 -74 70 0
-12 -10 0
-57 -30 -17 0
-31 45 71 -21 8 0
-17 -66 0
58 13 45 20 -29 -31 0
-15 -12 -35 0
-10 7 0
66 65 2 6 -12 0
75 -59 16 0
25 43 0
46 -4 -65 0
-10 -31 0
65 -36 -3 0
-4 -52 36 -60 -43 0
45 -75 59 0
-13 -28 0
75 0
